136	32	4	121	
10	10	10	10

0	0	0	0	0	0	1	1
1	2	1	1	0	6	1	2
2	3	0	4	1	9	1	3
3	6	4	4	0	7	2	5	4
4	2	4	4	0	1	1	6
5	2	0	3	3	9	1	6
6	4	0	2	5	8	2	8	7
7	4	0	4	4	1	1	9
8	1	0	2	4	3	1	9
9	0	6	5	6	5	2	23	10
10	0	3	5	4	3	2	13	11
11	0	4	4	5	7	1	12
12	0	4	3	2	1	1	14
13	10	0	5	2	3	1	14
14	5	5	5	0	5	1	15
15	2	5	0	6	4	1	16
16	0	4	5	5	5	1	17
17	8	6	0	4	1	1	18
18	3	0	4	6	2	2	20	19
19	0	1	5	2	2	1	21
20	1	3	4	0	5	1	21
21	3	0	3	3	10	1	22
22	8	4	7	0	9	1	24
23	5	6	0	3	3	1	24
24	3	6	0	5	2	1	25
25	2	0	5	3	3	1	26
26	7	0	6	3	3	1	27
27	3	0	3	7	7	2	30	28
28	6	0	4	4	6	1	29
29	0	4	5	5	1	1	31
30	2	2	2	0	5	1	31
31	0	0	0	0	0	0
